;  time = 495.1367754936218
(set-logic QF_FP)
(declare-const x0 (_ FloatingPoint 8 24))
(declare-const x1 (_ FloatingPoint 8 24))
(declare-const x2 (_ FloatingPoint 8 24))
(declare-const x3 (_ FloatingPoint 8 24))
(declare-const x4 (_ FloatingPoint 8 24))
(declare-const x5 (_ FloatingPoint 8 24))
(declare-const x6 (_ FloatingPoint 8 24))
(declare-const x7 (_ FloatingPoint 8 24))
(declare-const x8 (_ FloatingPoint 8 24))
(declare-const x9 (_ FloatingPoint 8 24))
(declare-const x10 (_ FloatingPoint 8 24))
(declare-const x11 (_ FloatingPoint 8 24))
(declare-const x12 (_ FloatingPoint 8 24))
(declare-const x13 (_ FloatingPoint 8 24))
(declare-const x14 (_ FloatingPoint 8 24))
(assert (fp.isSubnormal (fp.add RNE (fp.mul RNE (fp.add RNE (fp.add RNE (fp.add RNE (fp.add RNE x7 (fp.mul RNE (fp.abs (fp.abs x4)) x12)) (fp.add RNE x3 (fp.sub RNE (fp.abs (fp.sub RNE x12 x1)) (fp.neg (fp.add RNE x4 x1))))) x1) (fp.abs (fp.neg (fp.mul RNE (fp.mul RNE (fp.neg x11) (fp.abs (fp.add RNE x10 x0))) (fp.neg x7))))) x0) (fp.sub RNE (fp.neg (fp.mul RNE (fp.sub RNE x3 (fp.mul RNE (fp.add RNE (fp.neg (fp.sub RNE x1 x5)) (fp.abs (fp.mul RNE x5 x12))) (fp.abs (fp.add RNE (fp.neg x13) (fp.abs x6))))) (fp.sub RNE (fp.mul RNE x5 (fp.mul RNE (fp.mul RNE (fp.mul RNE x5 x7) (fp.abs x9)) (fp.mul RNE (fp.add RNE x14 x7) (fp.neg x8)))) (fp.sub RNE (fp.mul RNE (fp.neg (fp.mul RNE x9 x12)) (fp.abs (fp.neg x3))) (fp.abs (fp.add RNE x10 (fp.sub RNE x11 x8))))))) x12))))
(check-sat)